p cnf 10 27
-8 9 5 6 0
7 0
-4 0
-7 -5 4 0
6 0
5 0
3 0
-8 8 -6 5 0
4 -3 -2 0
10 0
-5 -4 0
2 -5 -4 -9 0
4 -3 0
-4 -10 0
-8 0
1 -4 -10 -2 0
9 10 4 -1 0
8 -7 0
1 0
-5 -3 7 0
-9 0
10 -5 -3 -2 0
3 4 -1 -10 0
9 -6 2 0
-7 -5 -9 0
9 0
3 5 -9 0
